c generated by sgen
p cnf 49 108
-2 -3 -4 0
-1 -3 -4 0
-1 -2 -4 0
-1 -2 -3 0
-6 -7 -8 0
-5 -7 -8 0
-5 -6 -8 0
-5 -6 -7 0
-10 -11 -12 0
-9 -11 -12 0
-9 -10 -12 0
-9 -10 -11 0
-14 -15 -16 0
-13 -15 -16 0
-13 -14 -16 0
-13 -14 -15 0
-18 -19 -20 0
-17 -19 -20 0
-17 -18 -20 0
-17 -18 -19 0
-22 -23 -24 0
-21 -23 -24 0
-21 -22 -24 0
-21 -22 -23 0
-26 -27 -28 0
-25 -27 -28 0
-25 -26 -28 0
-25 -26 -27 0
-30 -31 -32 0
-29 -31 -32 0
-29 -30 -32 0
-29 -30 -31 0
-34 -35 -36 0
-33 -35 -36 0
-33 -34 -36 0
-33 -34 -35 0
-38 -39 -40 0
-37 -39 -40 0
-37 -38 -40 0
-37 -38 -39 0
-42 -43 -44 0
-41 -43 -44 0
-41 -42 -44 0
-41 -42 -43 0
-45 -46 -47 0
-45 -46 -48 0
-45 -46 -49 0
-45 -47 -48 0
-45 -47 -49 0
-45 -48 -49 0
-46 -47 -48 0
-46 -47 -49 0
-46 -48 -49 0
-47 -48 -49 0
2 42 30 0
21 42 30 0
21 2 30 0
21 2 42 0
7 44 16 0
47 44 16 0
47 7 16 0
47 7 44 0
13 27 4 0
18 27 4 0
18 13 4 0
18 13 27 0
37 31 8 0
20 31 8 0
20 37 8 0
20 37 31 0
38 15 48 0
23 15 48 0
23 38 48 0
23 38 15 0
45 32 35 0
26 32 35 0
26 45 35 0
26 45 32 0
34 40 1 0
5 40 1 0
5 34 1 0
5 34 40 0
11 46 3 0
17 46 3 0
17 11 3 0
17 11 46 0
36 9 14 0
29 9 14 0
29 36 14 0
29 36 9 0
6 12 25 0
22 12 25 0
22 6 25 0
22 6 12 0
33 24 41 0
19 24 41 0
19 33 41 0
19 33 24 0
39 28 49 0
39 28 10 0
39 28 43 0
39 49 10 0
39 49 43 0
39 10 43 0
28 49 10 0
28 49 43 0
28 10 43 0
49 10 43 0
